certificates/rado_a13_c211_N31.cnf
c Rad2 upper bound instance: x1 + 13*x2 - x3 = 211, interval [1,31]
p cnf 31 148
1 11 17 0
-1 -11 -17 0
1 18 24 0
-1 -18 -24 0
2 12 17 0
-2 -12 -17 0
2 18 25 0
-2 -18 -25 0
3 13 17 0
-3 -13 -17 0
3 18 26 0
-3 -18 -26 0
1 4 16 0
-1 -4 -16 0
4 14 17 0
-4 -14 -17 0
4 18 27 0
-4 -18 -27 0
2 5 16 0
-2 -5 -16 0
5 15 17 0
-5 -15 -17 0
5 18 28 0
-5 -18 -28 0
3 6 16 0
-3 -6 -16 0
6 16 17 0
-6 -16 -17 0
6 18 29 0
-6 -18 -29 0
4 7 16 0
-4 -7 -16 0
7 17 0
-7 -17 0
7 18 30 0
-7 -18 -30 0
5 8 16 0
-5 -8 -16 0
8 17 18 0
-8 -17 -18 0
8 18 31 0
-8 -18 -31 0
6 9 16 0
-6 -9 -16 0
9 17 19 0
-9 -17 -19 0
7 10 16 0
-7 -10 -16 0
10 17 20 0
-10 -17 -20 0
8 11 16 0
-8 -11 -16 0
11 17 21 0
-11 -17 -21 0
9 12 16 0
-9 -12 -16 0
12 17 22 0
-12 -17 -22 0
10 13 16 0
-10 -13 -16 0
13 17 23 0
-13 -17 -23 0
11 14 16 0
-11 -14 -16 0
14 17 24 0
-14 -17 -24 0
12 15 16 0
-12 -15 -16 0
15 17 25 0
-15 -17 -25 0
13 16 0
-13 -16 0
16 17 26 0
-16 -17 -26 0
1 15 17 0
-1 -15 -17 0
14 16 17 0
-14 -16 -17 0
17 27 0
-17 -27 0
2 15 18 0
-2 -15 -18 0
15 16 18 0
-15 -16 -18 0
17 18 28 0
-17 -18 -28 0
3 15 19 0
-3 -15 -19 0
16 19 0
-16 -19 0
17 19 29 0
-17 -19 -29 0
4 15 20 0
-4 -15 -20 0
16 17 20 0
-16 -17 -20 0
17 20 30 0
-17 -20 -30 0
5 15 21 0
-5 -15 -21 0
16 18 21 0
-16 -18 -21 0
17 21 31 0
-17 -21 -31 0
6 15 22 0
-6 -15 -22 0
16 19 22 0
-16 -19 -22 0
7 15 23 0
-7 -15 -23 0
16 20 23 0
-16 -20 -23 0
8 15 24 0
-8 -15 -24 0
16 21 24 0
-16 -21 -24 0
9 15 25 0
-9 -15 -25 0
16 22 25 0
-16 -22 -25 0
10 15 26 0
-10 -15 -26 0
16 23 26 0
-16 -23 -26 0
11 15 27 0
-11 -15 -27 0
16 24 27 0
-16 -24 -27 0
12 15 28 0
-12 -15 -28 0
16 25 28 0
-16 -25 -28 0
13 15 29 0
-13 -15 -29 0
16 26 29 0
-16 -26 -29 0
1 14 30 0
-1 -14 -30 0
14 15 30 0
-14 -15 -30 0
16 27 30 0
-16 -27 -30 0
2 14 31 0
-2 -14 -31 0
15 31 0
-15 -31 0
16 28 31 0
-16 -28 -31 0
