certificates/rado_a13_c211_N31.drat
16 -29 -30 15 0
-16 -30 -31 0
-30 -31 0
d -16 -30 -31 0
-31 0
15 0
23 17 0
d 23 13 17 0
17 0
-7 0
-27 0
-1 0
-5 0
-25 0
30 0
-20 0
-14 0
2 0
-18 0
-12 0
28 0
8 0
4 0
24 0
0
